NAME: random-40-3297
TYPE: TSP
COMMENT: size=40 seed=3297
DIMENSION: 82
EDGE_WEIGHT_TYPE: EUC_2D
NODE_COORD_SECTION
+0 679 802
-0 679 802
+1 78 297
-1 283 780
+2 498 166
-2 872 341
+3 991 363
-3 267 729
+4 955 338
-4 672 424
+5 719 385
-5 746 280
+6 837 262
-6 362 281
+7 315 278
-7 162 58
+8 409 367
-8 948 947
+9 768 282
-9 214 849
+10 541 951
-10 567 291
+11 289 632
-11 662 375
+12 965 643
-12 328 416
+13 675 186
-13 348 974
+14 40 739
-14 351 438
+15 80 841
-15 859 131
+16 853 25
-16 750 723
+17 488 880
-17 956 255
+18 884 97
-18 243 201
+19 717 437
-19 255 960
+20 492 707
-20 169 754
+21 835 390
-21 916 11
+22 82 443
-22 940 708
+23 406 230
-23 988 619
+24 26 311
-24 197 25
+25 960 735
-25 625 127
+26 307 378
-26 254 33
+27 304 467
-27 470 458
+28 549 383
-28 775 434
+29 852 956
-29 164 154
+30 767 894
-30 595 221
+31 379 516
-31 37 280
+32 170 952
-32 946 2
+33 89 882
-33 815 971
+34 806 22
-34 342 408
+35 815 404
-35 235 193
+36 25 121
-36 931 949
+37 838 112
-37 421 410
+38 710 17
-38 194 353
+39 34 611
-39 82 813
+40 932 492
-40 360 200
PRECEDENCE_SECTION
+0 -0
+1 -1
+2 -2
+3 -3
+4 -4
+5 -5
+6 -6
+7 -7
+8 -8
+9 -9
+10 -10
+11 -11
+12 -12
+13 -13
+14 -14
+15 -15
+16 -16
+17 -17
+18 -18
+19 -19
+20 -20
+21 -21
+22 -22
+23 -23
+24 -24
+25 -25
+26 -26
+27 -27
+28 -28
+29 -29
+30 -30
+31 -31
+32 -32
+33 -33
+34 -34
+35 -35
+36 -36
+37 -37
+38 -38
+39 -39
+40 -40
EOF
